proyfinal/src/viki/013/experimentInOfficeAgust.take6.output/cbea5b25-ff45-46ba-8e5f-e32ad055fdc9.als.dat
{'cnf.clauses': '118081',
 'cnf.totvars': '69608',
 'conflict literals': '12',
 'conflicts': '8',
 'decisions': '2771',
 'memused.mb': '14.73',
 'outcome': 'UNSAT',
 'propagations': '23219',
 'restarts': '1',
 'solver.msecs': 28,
 'task.msecs': 70}
