proyfinal/src/viki/013/experimentInOfficeAgust.take6.output/cbea5b25-ff45-46ba-8e5f-e32ad055fdc9.als.out
Reading from standard input... Use '--help' for help.
============================[ Problem Statistics ]=============================
|                                                                             |
|  Number of variables:         69608                                         |
|  Number of clauses:          118081                                         |
|  Parse time:                   0.02 s                                       |
|                                                                             |
============================[ Search Statistics ]==============================
| Conflicts |          ORIGINAL         |          LEARNT          | Progress |
|           |    Vars  Clauses Literals |    Limit  Clauses Lit/Cl |          |
===============================================================================
===============================================================================
restarts              : 1
conflicts             : 8              (283 /sec)
decisions             : 2771           (0.00 % random) (98172 /sec)
propagations          : 23219          (822610 /sec)
conflict literals     : 12             (0.00 % deleted)
Memory used           : 14.73 MB
CPU time              : 0.028226 s

UNSATISFIABLE
